&CONTROL
  calculation    = 'vc-relax',
  prefix         = 'la2_anatase',
  pseudo_dir     = './anatase_psps',
  outdir         = './tmp/',
  tstress        = .true.,
  tprnfor        = .true.,
  etot_conv_thr  = 1.0d-5,
  forc_conv_thr  = 1.0d-4,
  nstep          = 100
/

&SYSTEM
  nosym          = .true.
  ibrav          = 0,
  nat            = 48,
  ntyp           = 3,
  ecutwfc        = 50.0,
  ecutrho        = 250.0,
  occupations    = 'smearing',
  smearing       = 'mv',
  degauss        = 0.001
/

&ELECTRONS
  mixing_beta    = 0.5,
  conv_thr       = 1.0d-8
/

&IONS
  upscale        = 100.D0
/

&CELL
  cell_dynamics  = 'bfgs',
  press_conv_thr = 0.5d0,
  cell_dofree    = 'all'
/

ATOMIC_SPECIES
La  138.905 la_pbesol_v1.uspp.F.UPF
O    15.999 o_pbesol_v1.uspp.F.UPF
Ti   47.867 ti_pbesol_v1.uspp.F.UPF

K_POINTS {automatic}
6 6 4 0 0 0

CELL_PARAMETERS (angstrom)
  7.565079360000   0.000000000000   0.000000000000
  0.000000000000   7.565079360000   0.000000000000
  0.000000000000   0.000000000000   9.615021570000

ATOMIC_POSITIONS (crystal)
La   0.000000000000   0.000000000000   0.000000000000
Ti   0.000000000000   0.250000000000   0.250000000000
Ti   0.250000000000   0.250000000000   0.500000000000
Ti   0.250000000000   0.000000000000   0.750000000000
O    0.000000000000   0.250000000000   0.457152130000
O    0.000000000000   0.000000000000   0.207152130000
O    0.000000000000   0.250000000000   0.042847870000
O    0.250000000000   0.250000000000   0.292847870000
O    0.250000000000   0.000000000000   0.957152130000
O    0.250000000000   0.250000000000   0.707152130000
O    0.250000000000   0.000000000000   0.542847870000
O    0.000000000000   0.000000000000   0.792847870000
Ti   0.000000000000   0.500000000000   0.000000000000
Ti   0.000000000000   0.750000000000   0.250000000000
Ti   0.250000000000   0.750000000000   0.500000000000
Ti   0.250000000000   0.500000000000   0.750000000000
O    0.000000000000   0.750000000000   0.457152130000
O    0.000000000000   0.500000000000   0.207152130000
O    0.000000000000   0.750000000000   0.042847870000
O    0.250000000000   0.750000000000   0.292847870000
O    0.250000000000   0.500000000000   0.957152130000
O    0.250000000000   0.750000000000   0.707152130000
O    0.250000000000   0.500000000000   0.542847870000
O    0.000000000000   0.500000000000   0.792847870000
Ti   0.500000000000   0.000000000000   0.000000000000
Ti   0.500000000000   0.250000000000   0.250000000000
Ti   0.750000000000   0.250000000000   0.500000000000
Ti   0.750000000000   0.000000000000   0.750000000000
O    0.500000000000   0.250000000000   0.457152130000
O    0.500000000000   0.000000000000   0.207152130000
O    0.500000000000   0.250000000000   0.042847870000
O    0.750000000000   0.250000000000   0.292847870000
O    0.750000000000   0.000000000000   0.957152130000
O    0.750000000000   0.250000000000   0.707152130000
O    0.750000000000   0.000000000000   0.542847870000
O    0.500000000000   0.000000000000   0.792847870000
Ti   0.500000000000   0.500000000000   0.000000000000
Ti   0.500000000000   0.750000000000   0.250000000000
Ti   0.750000000000   0.750000000000   0.500000000000
La   0.750000000000   0.500000000000   0.750000000000
O    0.500000000000   0.750000000000   0.457152130000
O    0.500000000000   0.500000000000   0.207152130000
O    0.500000000000   0.750000000000   0.042847870000
O    0.750000000000   0.750000000000   0.292847870000
O    0.750000000000   0.500000000000   0.957152130000
O    0.750000000000   0.750000000000   0.707152130000
O    0.750000000000   0.500000000000   0.542847870000
O    0.500000000000   0.500000000000   0.792847870000
