PTO phonon 
&input
 fildyn='pto.gamma.dyn'
 asr='simple',
 q(1)=1.d0, q(2)=0.d0, q(3)=0.d0
/


